10J3M/DAT/10J3MNTA-6.dat
10 3
17.9001 320.4136
26.9231 724.8533
30.5518 933.4125
16.7597 280.8875
26.394 696.6432
23.3944 547.298
24.3865 594.7014
22.2963 497.125
24.3669 593.7458
26.0728 679.7909
1467.2178