10J3M/SOL/10J3MNTA-6.sol
solution status: optimal solution found
objective value:                     66.2096330848628
x#1#1                                               1 	(obj:0)
x#2#2                               0.241748247639674 	(obj:0)
x#2#3                               0.758251752360326 	(obj:0)
x#3#3                                               1 	(obj:0)
x#4#2                                               1 	(obj:0)
x#5#2                               0.549249706268972 	(obj:0)
x#5#3                               0.450750293731028 	(obj:0)
x#7#1                                               1 	(obj:0)
x#8#2                                               1 	(obj:0)
x#9#1                               0.123503786871054 	(obj:0)
x#9#3                               0.235786428378789 	(obj:0)
x#10#1                              0.611966875546721 	(obj:0)
x#10#3                              0.388033124453279 	(obj:0)
z                                    66.2096330848628 	(obj:1)
